c width = 1, time = 0.000373
s td 100 2 100
b 1 99
b 2 99 98
b 3 98 97
b 4 97 96
b 5 96 95
b 6 95 94
b 7 94 93
b 8 93 92
b 9 92 91
b 10 91 89
b 11 89 88
b 12 88 87
b 13 87 86
b 14 86 85
b 15 85 84
b 16 84 83
b 17 83 82
b 18 82 81
b 19 81 80
b 20 80 78
b 21 78 77
b 22 77 76
b 23 76 75
b 24 75 74
b 25 74 73
b 26 73 72
b 27 72 71
b 28 71 70
b 29 70 69
b 30 69 67
b 31 67 66
b 32 66 65
b 33 65 64
b 34 64 63
b 35 63 62
b 36 62 61
b 37 61 60
b 38 60 59
b 39 59 58
b 40 58 56
b 41 56 55
b 42 55 54
b 43 54 53
b 44 53 52
b 45 52 51
b 46 51 50
b 47 50 49
b 48 49 48
b 49 48 47
b 50 47 45
b 51 45 44
b 52 44 43
b 53 43 42
b 54 42 41
b 55 41 40
b 56 40 39
b 57 39 38
b 58 38 37
b 59 37 36
b 60 36 34
b 61 34 33
b 62 33 32
b 63 32 31
b 64 31 30
b 65 30 29
b 66 29 28
b 67 28 27
b 68 27 26
b 69 26 25
b 70 25 23
b 71 23 22
b 72 22 21
b 73 21 20
b 74 20 19
b 75 19 18
b 76 18 17
b 77 17 16
b 78 16 15
b 79 15 14
b 80 14 12
b 81 12 11
b 82 11 10
b 83 10 9
b 84 9 8
b 85 8 7
b 86 7 6
b 87 6 5
b 88 5 4
b 89 4 3
b 90 3 90
b 91 90 79
b 92 79 68
b 93 68 57
b 94 57 46
b 95 46 35
b 96 35 24
b 97 24 13
b 98 13 2
b 99 2 1
b 100 99 100
1 2
2 3
3 4
4 5
5 6
6 7
7 8
8 9
9 10
10 11
11 12
12 13
13 14
14 15
15 16
16 17
17 18
18 19
19 20
20 21
21 22
22 23
23 24
24 25
25 26
26 27
27 28
28 29
29 30
30 31
31 32
32 33
33 34
34 35
35 36
36 37
37 38
38 39
39 40
40 41
41 42
42 43
43 44
44 45
45 46
46 47
47 48
48 49
49 50
50 51
51 52
52 53
53 54
54 55
55 56
56 57
57 58
58 59
59 60
60 61
61 62
62 63
63 64
64 65
65 66
66 67
67 68
68 69
69 70
70 71
71 72
72 73
73 74
74 75
75 76
76 77
77 78
78 79
79 80
80 81
81 82
82 83
83 84
84 85
85 86
86 87
87 88
88 89
89 90
90 91
91 92
92 93
93 94
94 95
95 96
96 97
97 98
98 99
1 100
